
c turning on binary mode checking

c parsing input formula with 23 variables and 1012 clauses

c finished parsing, read 672 bytes from proof file

c detected empty clause; start verification via backward checking

c 183 of 1012 clauses in core                            

c 78 of 90 lemmas in core using 884 resolution steps

c 0 RAT lemmas in core; 2 redundant literals in core lemmas

s VERIFIED

c verification time: 0.054 seconds
